NAME : X_38_seed_123_id_7
TYPE : CVRP
DIMENSION : 275
EDGE_WEIGHT_TYPE : EUC_2D
CAPACITY : 10
NODE_COORD_SECTION
1	43	135
2	50	387
3	20	20
4	54	423
5	72	375
6	18	417
7	64	354
8	58	27
9	41	552
10	11	368
11	52	486
12	43	429
13	117	524
14	104	385
15	74	312
16	46	402
17	65	372
18	147	595
19	89	232
20	156	425
21	65	494
22	96	459
23	78	438
24	102	556
25	112	517
26	110	27
27	93	429
28	126	316
29	79	387
30	40	421
31	51	43
32	35	609
33	9	379
34	104	341
35	46	217
36	76	412
37	110	446
38	102	484
39	103	44
40	26	457
41	26	425
42	60	412
43	0	332
44	33	32
45	23	374
46	63	338
47	56	393
48	89	403
49	63	83
50	112	533
51	89	368
52	98	23
53	4	259
54	41	390
55	57	436
56	24	242
57	55	330
58	47	376
59	8	368
60	4	25
61	125	399
62	115	567
63	127	317
64	61	368
65	85	442
66	59	422
67	46	371
68	126	30
69	12	369
70	58	339
71	22	447
72	68	446
73	59	525
74	155	396
75	58	430
76	101	401
77	21	432
78	116	11
79	52	375
80	106	125
81	108	426
82	20	374
83	5	475
84	41	385
85	49	91
86	43	393
87	11	29
88	91	379
89	53	411
90	179	118
91	108	102
92	110	517
93	52	366
94	7	15
95	181	374
96	36	23
97	41	378
98	166	313
99	17	392
100	76	467
101	79	34
102	44	444
103	0	395
104	70	551
105	25	439
106	65	395
107	10	538
108	105	302
109	21	421
110	110	376
111	50	457
112	80	470
113	29	352
114	119	376
115	92	412
116	30	59
117	90	199
118	55	521
119	1	452
120	60	353
121	31	39
122	9	566
123	125	2
124	170	335
125	130	527
126	103	339
127	20	483
128	120	442
129	34	32
130	113	280
131	97	315
132	11	422
133	71	467
134	62	438
135	40	31
136	44	417
137	61	622
138	4	270
139	157	473
140	45	541
141	32	84
142	30	401
143	43	86
144	15	370
145	48	473
146	16	16
147	157	392
148	140	346
149	97	426
150	127	409
151	85	120
152	40	444
153	22	437
154	6	376
155	1	428
156	48	388
157	22	383
158	19	485
159	65	73
160	147	380
161	56	308
162	92	423
163	70	378
164	129	439
165	109	424
166	108	439
167	112	381
168	62	485
169	46	19
170	16	6
171	123	306
172	93	425
173	32	394
174	145	484
175	334	234
176	160	19
177	89	616
178	35	376
179	95	432
180	86	407
181	34	333
182	36	19
183	160	44
184	65	425
185	17	410
186	26	402
187	185	305
188	5	449
189	51	67
190	56	370
191	59	79
192	29	498
193	189	467
194	47	482
195	52	411
196	20	399
197	119	142
198	156	792
199	75	392
200	26	55
201	60	505
202	133	384
203	139	583
204	84	326
205	119	440
206	42	421
207	12	0
208	36	376
209	45	280
210	32	377
211	25	480
212	89	531
213	28	39
214	44	485
215	4	355
216	50	487
217	96	441
218	72	348
219	89	512
220	12	416
221	63	12
222	82	384
223	8	0
224	37	418
225	130	460
226	137	427
227	18	396
228	50	303
229	143	33
230	88	391
231	103	454
232	14	421
233	121	276
234	84	573
235	93	261
236	52	379
237	49	44
238	66	502
239	102	469
240	144	357
241	3	523
242	205	396
243	30	414
244	45	449
245	105	376
246	72	511
247	33	390
248	33	338
249	25	523
250	84	344
251	22	361
252	30	274
253	4	371
254	44	474
255	11	368
256	85	351
257	98	380
258	40	446
259	65	315
260	198	495
261	68	15
262	61	428
263	149	387
264	109	415
265	236	365
266	141	602
267	57	401
268	18	384
269	39	424
270	68	425
271	71	419
272	170	528
273	25	383
274	96	619
275	17	412
DEMAND_SECTION
1	0
2	1
3	1
4	1
5	1
6	1
7	1
8	1
9	1
10	1
11	1
12	1
13	1
14	1
15	1
16	1
17	1
18	1
19	1
20	1
21	1
22	1
23	1
24	1
25	1
26	1
27	1
28	1
29	1
30	1
31	1
32	1
33	1
34	1
35	1
36	1
37	1
38	1
39	1
40	1
41	1
42	1
43	1
44	1
45	1
46	1
47	1
48	1
49	1
50	1
51	1
52	1
53	1
54	1
55	1
56	1
57	1
58	1
59	1
60	1
61	1
62	1
63	1
64	1
65	1
66	1
67	1
68	1
69	1
70	1
71	1
72	1
73	1
74	1
75	1
76	1
77	1
78	1
79	1
80	1
81	1
82	1
83	1
84	1
85	1
86	1
87	1
88	1
89	1
90	1
91	1
92	1
93	1
94	1
95	1
96	1
97	1
98	1
99	1
100	1
101	1
102	1
103	1
104	1
105	1
106	1
107	1
108	1
109	1
110	1
111	1
112	1
113	1
114	1
115	1
116	1
117	1
118	1
119	1
120	1
121	1
122	1
123	1
124	1
125	1
126	1
127	1
128	1
129	1
130	1
131	1
132	1
133	1
134	1
135	1
136	1
137	1
138	1
139	1
140	1
141	1
142	1
143	1
144	1
145	1
146	1
147	1
148	1
149	1
150	1
151	1
152	1
153	1
154	1
155	1
156	1
157	1
158	1
159	1
160	1
161	1
162	1
163	1
164	1
165	1
166	1
167	1
168	1
169	1
170	1
171	1
172	1
173	1
174	1
175	1
176	1
177	1
178	1
179	1
180	1
181	1
182	1
183	1
184	1
185	1
186	1
187	1
188	1
189	1
190	1
191	1
192	1
193	1
194	1
195	1
196	1
197	1
198	1
199	1
200	1
201	1
202	1
203	1
204	1
205	1
206	1
207	1
208	1
209	1
210	1
211	1
212	1
213	1
214	1
215	1
216	1
217	1
218	1
219	1
220	1
221	1
222	1
223	1
224	1
225	1
226	1
227	1
228	1
229	1
230	1
231	1
232	1
233	1
234	1
235	1
236	1
237	1
238	1
239	1
240	1
241	1
242	1
243	1
244	1
245	1
246	1
247	1
248	1
249	1
250	1
251	1
252	1
253	1
254	1
255	1
256	1
257	1
258	1
259	1
260	1
261	1
262	1
263	1
264	1
265	1
266	1
267	1
268	1
269	1
270	1
271	1
272	1
273	1
274	1
275	1
DEPOT_SECTION
1
-1
EOF
